language Essence 1.3

letting class be function(1 --> 1, 2 --> 2, 3 --> 1, 4 --> 2, 5 --> 2, 6 --> 1, 7 --> 2, 8 --> 2, 9 --> 1)
letting deck_length be 24
letting deck_width be 66
letting length be function(1 --> 11, 2 --> 2, 3 --> 4, 4 --> 4, 5 --> 11, 6 --> 1, 7 --> 12, 8 --> 17, 9 --> 10)
letting n_classes be 2
letting n_containers be 9
letting separation be function({1, 2} --> 56)
letting width be function(1 --> 12, 2 --> 1, 3 --> 1, 4 --> 1, 5 --> 2, 6 --> 1, 7 --> 14, 8 --> 18, 9 --> 1)
